
Gurobi 7.0.2 (linux64, Matlab) logging started Sun Sep  2 08:55:02 2018


Gurobi 7.0.2 (linux64) logging started Sun Sep  2 08:55:02 2018

Optimize a model with 47536 rows, 129869 columns and 358498 nonzeros
Coefficient statistics:
  Matrix range     [1e+00, 7e+01]
  Objective range  [1e+00, 4e+05]
  Bounds range     [2e+00, 3e+06]
  RHS range        [2e-01, 4e+03]
Iteration    Objective       Primal Inf.    Dual Inf.      Time
       0    1.5509842e+07   0.000000e+00   0.000000e+00      0s

Solved in 0 iterations and 0.03 seconds
Optimal objective  1.550984208e+07
